8503
24, 48, 37, 36, 49, 32, 1, 22, 21, 30, 42, 2, 7, 17, 3, 41, 8, 9, 10, 19, 45, 18, 31, 23, 20, 50, 16, 29, 47, 26, 28, 27, 13, 14, 52, 11, 12, 51, 33, 43, 15, 38, 40, 39, 35, 34, 44, 46, 25, 4, 6, 5
